%chk=D:\gfile\pywfn\C2H4.chk
# opt b3lyp/6-31g(d) pop=full gfinput iop(3/33=1)

Title Card Required

0 1
 C                  0.00000000   -0.67760000    0.00000000
 H                  0.92664718   -1.21260000    0.00000000
 H                 -0.92664718   -1.21260000    0.00000000
 C                 -0.00000000    0.67760000    0.00000000
 H                 -0.92664718    1.21260000    0.00000000
 H                  0.92664718    1.21260000   -0.00000000

